computational_data/real_data/solutions/iris_trial_005.sol
Optimal - objective value 8.00000000
      4 r_4                         1                       1
      6 r_6                         1                       1
     22 r_22                        1                       1
     23 r_23                        1                       1
     25 b_0                         1                       1
     30 b_5                         1                       1
     41 b_16                        1                       1
     44 b_19                        1                       1
